c nIsolatedPIs 24
c maxPI 176
p cnf 603 1282
c gate 177 67 155 0
67 -177 0
155 -177 0
-67 -155 177 0
c gate 178 -66 -154 0
-66 -178 0
-154 -178 0
66 154 178 0
c gate 179 66 154 0
66 -179 0
154 -179 0
-66 -154 179 0
c gate 180 65 153 0
65 -180 0
153 -180 0
-65 -153 180 0
c gate 181 -179 -180 0
-179 -181 0
-180 -181 0
179 180 181 0
c gate 182 -178 -181 0
-178 -182 0
-181 -182 0
178 181 182 0
c gate 183 -61 -149 0
-61 -183 0
-149 -183 0
61 149 183 0
c gate 184 -63 -151 0
-63 -184 0
-151 -184 0
63 151 184 0
c gate 185 -62 -150 0
-62 -185 0
-150 -185 0
62 150 185 0
c gate 186 -64 -152 0
-64 -186 0
-152 -186 0
64 152 186 0
c gate 187 -185 -186 0
-185 -187 0
-186 -187 0
185 186 187 0
c gate 188 -184 187 0
-184 -188 0
187 -188 0
184 -187 188 0
c gate 189 -183 188 0
-183 -189 0
188 -189 0
183 -188 189 0
c gate 190 60 148 0
60 -190 0
148 -190 0
-60 -148 190 0
c gate 191 -60 -148 0
-60 -191 0
-148 -191 0
60 148 191 0
c gate 192 59 147 0
59 -192 0
147 -192 0
-59 -147 192 0
c gate 193 -191 192 0
-191 -193 0
192 -193 0
191 -192 193 0
c gate 194 -190 -193 0
-190 -194 0
-193 -194 0
190 193 194 0
c gate 195 58 146 0
58 -195 0
146 -195 0
-58 -146 195 0
c gate 196 57 145 0
57 -196 0
145 -196 0
-57 -145 196 0
c gate 197 -195 -196 0
-195 -197 0
-196 -197 0
195 196 197 0
c gate 198 -58 -146 0
-58 -198 0
-146 -198 0
58 146 198 0
c gate 199 -59 -147 0
-59 -199 0
-147 -199 0
59 147 199 0
c gate 200 -191 -199 0
-191 -200 0
-199 -200 0
191 199 200 0
c gate 201 -198 200 0
-198 -201 0
200 -201 0
198 -200 201 0
c gate 202 194 201 0
194 -202 0
201 -202 0
-194 -201 202 0
c gate 203 -197 202 0
-197 -203 0
202 -203 0
197 -202 203 0
c gate 204 194 -203 0
194 -204 0
-203 -204 0
-194 203 204 0
c gate 205 55 143 0
55 -205 0
143 -205 0
-55 -143 205 0
c gate 206 56 144 0
56 -206 0
144 -206 0
-56 -144 206 0
c gate 207 -205 -206 0
-205 -207 0
-206 -207 0
205 206 207 0
c gate 208 -54 -142 0
-54 -208 0
-142 -208 0
54 142 208 0
c gate 209 -52 -140 0
-52 -209 0
-140 -209 0
52 140 209 0
c gate 210 -53 -141 0
-53 -210 0
-141 -210 0
53 141 210 0
c gate 211 -209 -210 0
-209 -211 0
-210 -211 0
209 210 211 0
c gate 212 49 137 0
49 -212 0
137 -212 0
-49 -137 212 0
c gate 213 50 138 0
50 -213 0
138 -213 0
-50 -138 213 0
c gate 214 -212 -213 0
-212 -214 0
-213 -214 0
212 213 214 0
c gate 215 -51 -139 0
-51 -215 0
-139 -215 0
51 139 215 0
c gate 216 -50 -138 0
-50 -216 0
-138 -216 0
50 138 216 0
c gate 217 -215 -216 0
-215 -217 0
-216 -217 0
215 216 217 0
c gate 218 -214 217 0
-214 -218 0
217 -218 0
214 -217 218 0
c gate 219 52 140 0
52 -219 0
140 -219 0
-52 -140 219 0
c gate 220 51 139 0
51 -220 0
139 -220 0
-51 -139 220 0
c gate 221 -219 -220 0
-219 -221 0
-220 -221 0
219 220 221 0
c gate 222 -218 221 0
-218 -222 0
221 -222 0
218 -221 222 0
c gate 223 211 -222 0
211 -223 0
-222 -223 0
-211 222 223 0
c gate 224 54 142 0
54 -224 0
142 -224 0
-54 -142 224 0
c gate 225 53 141 0
53 -225 0
141 -225 0
-53 -141 225 0
c gate 226 -224 -225 0
-224 -226 0
-225 -226 0
224 225 226 0
c gate 227 -223 226 0
-223 -227 0
226 -227 0
223 -226 227 0
c gate 228 -208 -227 0
-208 -228 0
-227 -228 0
208 227 228 0
c gate 229 -48 -136 0
-48 -229 0
-136 -229 0
48 136 229 0
c gate 230 46 134 0
46 -230 0
134 -230 0
-46 -134 230 0
c gate 231 45 133 0
45 -231 0
133 -231 0
-45 -133 231 0
c gate 232 -230 -231 0
-230 -232 0
-231 -232 0
230 231 232 0
c gate 233 -46 -134 0
-46 -233 0
-134 -233 0
46 134 233 0
c gate 234 -47 -135 0
-47 -234 0
-135 -234 0
47 135 234 0
c gate 235 -233 -234 0
-233 -235 0
-234 -235 0
233 234 235 0
c gate 236 -232 235 0
-232 -236 0
235 -236 0
232 -235 236 0
c gate 237 48 136 0
48 -237 0
136 -237 0
-48 -136 237 0
c gate 238 47 135 0
47 -238 0
135 -238 0
-47 -135 238 0
c gate 239 -237 -238 0
-237 -239 0
-238 -239 0
237 238 239 0
c gate 240 -236 239 0
-236 -240 0
239 -240 0
236 -239 240 0
c gate 241 -229 -240 0
-229 -241 0
-240 -241 0
229 240 241 0
c gate 242 -25 -113 0
-25 -242 0
-113 -242 0
25 113 242 0
c gate 243 -16 -104 0
-16 -243 0
-104 -243 0
16 104 243 0
c gate 244 15 103 0
15 -244 0
103 -244 0
-15 -103 244 0
c gate 245 16 104 0
16 -245 0
104 -245 0
-16 -104 245 0
c gate 246 -244 -245 0
-244 -246 0
-245 -246 0
244 245 246 0
c gate 247 -13 -101 0
-13 -247 0
-101 -247 0
13 101 247 0
c gate 248 11 99 0
11 -248 0
99 -248 0
-11 -99 248 0
c gate 249 12 100 0
12 -249 0
100 -249 0
-12 -100 249 0
c gate 250 -248 -249 0
-248 -250 0
-249 -250 0
248 249 250 0
c gate 251 -12 -100 0
-12 -251 0
-100 -251 0
12 100 251 0
c gate 252 -250 -251 0
-250 -252 0
-251 -252 0
250 251 252 0
c gate 253 -11 -99 0
-11 -253 0
-99 -253 0
11 99 253 0
c gate 254 -10 -98 0
-10 -254 0
-98 -254 0
10 98 254 0
c gate 255 -251 -254 0
-251 -255 0
-254 -255 0
251 254 255 0
c gate 256 -253 255 0
-253 -256 0
255 -256 0
253 -255 256 0
c gate 257 250 256 0
250 -257 0
256 -257 0
-250 -256 257 0
c gate 258 10 98 0
10 -258 0
98 -258 0
-10 -98 258 0
c gate 259 9 97 0
9 -259 0
97 -259 0
-9 -97 259 0
c gate 260 -254 -259 0
-254 -260 0
-259 -260 0
254 259 260 0
c gate 261 -258 260 0
-258 -261 0
260 -261 0
258 -260 261 0
c gate 262 257 -261 0
257 -262 0
-261 -262 0
-257 261 262 0
c gate 263 -252 -262 0
-252 -263 0
-262 -263 0
252 262 263 0
c gate 264 -247 -263 0
-247 -264 0
-263 -264 0
247 263 264 0
c gate 265 14 102 0
14 -265 0
102 -265 0
-14 -102 265 0
c gate 266 13 101 0
13 -266 0
101 -266 0
-13 -101 266 0
c gate 267 -265 -266 0
-265 -267 0
-266 -267 0
265 266 267 0
c gate 268 -264 267 0
-264 -268 0
267 -268 0
264 -267 268 0
c gate 269 2 90 0
2 -269 0
90 -269 0
-2 -90 269 0
c gate 270 1 89 0
1 -270 0
89 -270 0
-1 -89 270 0
c gate 271 -269 -270 0
-269 -271 0
-270 -271 0
269 270 271 0
c gate 272 -3 -91 0
-3 -272 0
-91 -272 0
3 91 272 0
c gate 273 -2 -90 0
-2 -273 0
-90 -273 0
2 90 273 0
c gate 274 -272 -273 0
-272 -274 0
-273 -274 0
272 273 274 0
c gate 275 -271 274 0
-271 -275 0
274 -275 0
271 -274 275 0
c gate 276 4 92 0
4 -276 0
92 -276 0
-4 -92 276 0
c gate 277 3 91 0
3 -277 0
91 -277 0
-3 -91 277 0
c gate 278 -276 -277 0
-276 -278 0
-277 -278 0
276 277 278 0
c gate 279 -275 278 0
-275 -279 0
278 -279 0
275 -278 279 0
c gate 280 -4 -92 0
-4 -280 0
-92 -280 0
4 92 280 0
c gate 281 -5 -93 0
-5 -281 0
-93 -281 0
5 93 281 0
c gate 282 -280 -281 0
-280 -282 0
-281 -282 0
280 281 282 0
c gate 283 -279 282 0
-279 -283 0
282 -283 0
279 -282 283 0
c gate 284 6 94 0
6 -284 0
94 -284 0
-6 -94 284 0
c gate 285 5 93 0
5 -285 0
93 -285 0
-5 -93 285 0
c gate 286 -284 -285 0
-284 -286 0
-285 -286 0
284 285 286 0
c gate 287 -283 286 0
-283 -287 0
286 -287 0
283 -286 287 0
c gate 288 -8 -96 0
-8 -288 0
-96 -288 0
8 96 288 0
c gate 289 7 95 0
7 -289 0
95 -289 0
-7 -95 289 0
c gate 290 -288 -289 0
-288 -290 0
-289 -290 0
288 289 290 0
c gate 291 -6 -94 0
-6 -291 0
-94 -291 0
6 94 291 0
c gate 292 -7 -95 0
-7 -292 0
-95 -292 0
7 95 292 0
c gate 293 -291 -292 0
-291 -293 0
-292 -293 0
291 292 293 0
c gate 294 290 293 0
290 -294 0
293 -294 0
-290 -293 294 0
c gate 295 -287 294 0
-287 -295 0
294 -295 0
287 -294 295 0
c gate 296 -288 289 0
-288 -296 0
289 -296 0
288 -289 296 0
c gate 297 8 96 0
8 -297 0
96 -297 0
-8 -96 297 0
c gate 298 -296 -297 0
-296 -298 0
-297 -298 0
296 297 298 0
c gate 299 -295 298 0
-295 -299 0
298 -299 0
295 -298 299 0
c gate 300 -9 -97 0
-9 -300 0
-97 -300 0
9 97 300 0
c gate 301 -247 -300 0
-247 -301 0
-300 -301 0
247 300 301 0
c gate 302 261 301 0
261 -302 0
301 -302 0
-261 -301 302 0
c gate 303 257 302 0
257 -303 0
302 -303 0
-257 -302 303 0
c gate 304 -299 303 0
-299 -304 0
303 -304 0
299 -303 304 0
c gate 305 268 -304 0
268 -305 0
-304 -305 0
-268 304 305 0
c gate 306 -14 -102 0
-14 -306 0
-102 -306 0
14 102 306 0
c gate 307 -15 -103 0
-15 -307 0
-103 -307 0
15 103 307 0
c gate 308 -306 -307 0
-306 -308 0
-307 -308 0
306 307 308 0
c gate 309 -305 308 0
-305 -309 0
308 -309 0
305 -308 309 0
c gate 310 246 -309 0
246 -310 0
-309 -310 0
-246 309 310 0
c gate 311 -243 -310 0
-243 -311 0
-310 -311 0
243 310 311 0
c gate 312 24 112 0
24 -312 0
112 -312 0
-24 -112 312 0
c gate 313 -23 -111 0
-23 -313 0
-111 -313 0
23 111 313 0
c gate 314 -24 -112 0
-24 -314 0
-112 -314 0
24 112 314 0
c gate 315 -313 -314 0
-313 -315 0
-314 -315 0
313 314 315 0
c gate 316 21 109 0
21 -316 0
109 -316 0
-21 -109 316 0
c gate 317 -22 -110 0
-22 -317 0
-110 -317 0
22 110 317 0
c gate 318 316 -317 0
316 -318 0
-317 -318 0
-316 317 318 0
c gate 319 23 111 0
23 -319 0
111 -319 0
-23 -111 319 0
c gate 320 22 110 0
22 -320 0
110 -320 0
-22 -110 320 0
c gate 321 -319 -320 0
-319 -321 0
-320 -321 0
319 320 321 0
c gate 322 -318 321 0
-318 -322 0
321 -322 0
318 -321 322 0
c gate 323 315 -322 0
315 -323 0
-322 -323 0
-315 322 323 0
c gate 324 -312 -323 0
-312 -324 0
-323 -324 0
312 323 324 0
c gate 325 -20 -108 0
-20 -325 0
-108 -325 0
20 108 325 0
c gate 326 -316 -325 0
-316 -326 0
-325 -326 0
316 325 326 0
c gate 327 -21 -109 0
-21 -327 0
-109 -327 0
21 109 327 0
c gate 328 -317 -327 0
-317 -328 0
-327 -328 0
317 327 328 0
c gate 329 326 328 0
326 -329 0
328 -329 0
-326 -328 329 0
c gate 330 315 329 0
315 -330 0
329 -330 0
-315 -329 330 0
c gate 331 324 330 0
324 -331 0
330 -331 0
-324 -330 331 0
c gate 332 -19 -107 0
-19 -332 0
-107 -332 0
19 107 332 0
c gate 333 -18 -106 0
-18 -333 0
-106 -333 0
18 106 333 0
c gate 334 -332 -333 0
-332 -334 0
-333 -334 0
332 333 334 0
c gate 335 18 106 0
18 -335 0
106 -335 0
-18 -106 335 0
c gate 336 17 105 0
17 -336 0
105 -336 0
-17 -105 336 0
c gate 337 -335 -336 0
-335 -337 0
-336 -337 0
335 336 337 0
c gate 338 334 -337 0
334 -338 0
-337 -338 0
-334 337 338 0
c gate 339 20 108 0
20 -339 0
108 -339 0
-20 -108 339 0
c gate 340 19 107 0
19 -340 0
107 -340 0
-19 -107 340 0
c gate 341 -339 -340 0
-339 -341 0
-340 -341 0
339 340 341 0
c gate 342 -338 341 0
-338 -342 0
341 -342 0
338 -341 342 0
c gate 343 -17 -105 0
-17 -343 0
-105 -343 0
17 105 343 0
c gate 344 334 -343 0
334 -344 0
-343 -344 0
-334 343 344 0
c gate 345 342 344 0
342 -345 0
344 -345 0
-342 -344 345 0
c gate 346 331 345 0
331 -346 0
345 -346 0
-331 -345 346 0
c gate 347 311 346 0
311 -347 0
346 -347 0
-311 -346 347 0
c gate 348 331 -342 0
331 -348 0
-342 -348 0
-331 342 348 0
c gate 349 324 -348 0
324 -349 0
-348 -349 0
-324 348 349 0
c gate 350 -347 349 0
-347 -350 0
349 -350 0
347 -349 350 0
c gate 351 -242 -350 0
-242 -351 0
-350 -351 0
242 350 351 0
c gate 352 26 114 0
26 -352 0
114 -352 0
-26 -114 352 0
c gate 353 25 113 0
25 -353 0
113 -353 0
-25 -113 353 0
c gate 354 -352 -353 0
-352 -354 0
-353 -354 0
352 353 354 0
c gate 355 -351 354 0
-351 -355 0
354 -355 0
351 -354 355 0
c gate 356 -27 -115 0
-27 -356 0
-115 -356 0
27 115 356 0
c gate 357 -26 -114 0
-26 -357 0
-114 -357 0
26 114 357 0
c gate 358 -356 -357 0
-356 -358 0
-357 -358 0
356 357 358 0
c gate 359 -355 358 0
-355 -359 0
358 -359 0
355 -358 359 0
c gate 360 27 115 0
27 -360 0
115 -360 0
-27 -115 360 0
c gate 361 28 116 0
28 -361 0
116 -361 0
-28 -116 361 0
c gate 362 -360 -361 0
-360 -362 0
-361 -362 0
360 361 362 0
c gate 363 -359 362 0
-359 -363 0
362 -363 0
359 -362 363 0
c gate 364 -31 -119 0
-31 -364 0
-119 -364 0
31 119 364 0
c gate 365 -30 -118 0
-30 -365 0
-118 -365 0
30 118 365 0
c gate 366 -364 -365 0
-364 -366 0
-365 -366 0
364 365 366 0
c gate 367 -29 -117 0
-29 -367 0
-117 -367 0
29 117 367 0
c gate 368 -28 -116 0
-28 -368 0
-116 -368 0
28 116 368 0
c gate 369 -367 -368 0
-367 -369 0
-368 -369 0
367 368 369 0
c gate 370 366 369 0
366 -370 0
369 -370 0
-366 -369 370 0
c gate 371 -363 370 0
-363 -371 0
370 -371 0
363 -370 371 0
c gate 372 30 118 0
30 -372 0
118 -372 0
-30 -118 372 0
c gate 373 29 117 0
29 -373 0
117 -373 0
-29 -117 373 0
c gate 374 -372 -373 0
-372 -374 0
-373 -374 0
372 373 374 0
c gate 375 366 -374 0
366 -375 0
-374 -375 0
-366 374 375 0
c gate 376 31 119 0
31 -376 0
119 -376 0
-31 -119 376 0
c gate 377 32 120 0
32 -377 0
120 -377 0
-32 -120 377 0
c gate 378 -376 -377 0
-376 -378 0
-377 -378 0
376 377 378 0
c gate 379 -375 378 0
-375 -379 0
378 -379 0
375 -378 379 0
c gate 380 -371 379 0
-371 -380 0
379 -380 0
371 -379 380 0
c gate 381 -35 -123 0
-35 -381 0
-123 -381 0
35 123 381 0
c gate 382 -36 -124 0
-36 -382 0
-124 -382 0
36 124 382 0
c gate 383 -381 -382 0
-381 -383 0
-382 -383 0
381 382 383 0
c gate 384 -32 -120 0
-32 -384 0
-120 -384 0
32 120 384 0
c gate 385 -34 -122 0
-34 -385 0
-122 -385 0
34 122 385 0
c gate 386 -33 -121 0
-33 -386 0
-121 -386 0
33 121 386 0
c gate 387 -385 -386 0
-385 -387 0
-386 -387 0
385 386 387 0
c gate 388 -384 387 0
-384 -388 0
387 -388 0
384 -387 388 0
c gate 389 383 388 0
383 -389 0
388 -389 0
-383 -388 389 0
c gate 390 -380 389 0
-380 -390 0
389 -390 0
380 -389 390 0
c gate 391 36 124 0
36 -391 0
124 -391 0
-36 -124 391 0
c gate 392 33 121 0
33 -392 0
121 -392 0
-33 -121 392 0
c gate 393 -385 392 0
-385 -393 0
392 -393 0
385 -392 393 0
c gate 394 35 123 0
35 -394 0
123 -394 0
-35 -123 394 0
c gate 395 34 122 0
34 -395 0
122 -395 0
-34 -122 395 0
c gate 396 -394 -395 0
-394 -396 0
-395 -396 0
394 395 396 0
c gate 397 -393 396 0
-393 -397 0
396 -397 0
393 -396 397 0
c gate 398 383 -397 0
383 -398 0
-397 -398 0
-383 397 398 0
c gate 399 -391 -398 0
-391 -399 0
-398 -399 0
391 398 399 0
c gate 400 -390 399 0
-390 -400 0
399 -400 0
390 -399 400 0
c gate 401 37 125 0
37 -401 0
125 -401 0
-37 -125 401 0
c gate 402 38 126 0
38 -402 0
126 -402 0
-38 -126 402 0
c gate 403 -401 -402 0
-401 -403 0
-402 -403 0
401 402 403 0
c gate 404 -39 -127 0
-39 -404 0
-127 -404 0
39 127 404 0
c gate 405 -38 -126 0
-38 -405 0
-126 -405 0
38 126 405 0
c gate 406 -404 -405 0
-404 -406 0
-405 -406 0
404 405 406 0
c gate 407 -37 -125 0
-37 -407 0
-125 -407 0
37 125 407 0
c gate 408 406 -407 0
406 -408 0
-407 -408 0
-406 407 408 0
c gate 409 403 408 0
403 -409 0
408 -409 0
-403 -408 409 0
c gate 410 -400 409 0
-400 -410 0
409 -410 0
400 -409 410 0
c gate 411 -403 406 0
-403 -411 0
406 -411 0
403 -406 411 0
c gate 412 40 128 0
40 -412 0
128 -412 0
-40 -128 412 0
c gate 413 39 127 0
39 -413 0
127 -413 0
-39 -127 413 0
c gate 414 -412 -413 0
-412 -414 0
-413 -414 0
412 413 414 0
c gate 415 -411 414 0
-411 -415 0
414 -415 0
411 -414 415 0
c gate 416 -410 415 0
-410 -416 0
415 -416 0
410 -415 416 0
c gate 417 -42 -130 0
-42 -417 0
-130 -417 0
42 130 417 0
c gate 418 -43 -131 0
-43 -418 0
-131 -418 0
43 131 418 0
c gate 419 -417 -418 0
-417 -419 0
-418 -419 0
417 418 419 0
c gate 420 41 129 0
41 -420 0
129 -420 0
-41 -129 420 0
c gate 421 42 130 0
42 -421 0
130 -421 0
-42 -130 421 0
c gate 422 -420 -421 0
-420 -422 0
-421 -422 0
420 421 422 0
c gate 423 -41 -129 0
-41 -423 0
-129 -423 0
41 129 423 0
c gate 424 -40 -128 0
-40 -424 0
-128 -424 0
40 128 424 0
c gate 425 -423 -424 0
-423 -425 0
-424 -425 0
423 424 425 0
c gate 426 422 425 0
422 -426 0
425 -426 0
-422 -425 426 0
c gate 427 419 426 0
419 -427 0
426 -427 0
-419 -426 427 0
c gate 428 -416 427 0
-416 -428 0
427 -428 0
416 -427 428 0
c gate 429 419 -422 0
419 -429 0
-422 -429 0
-419 422 429 0
c gate 430 43 131 0
43 -430 0
131 -430 0
-43 -131 430 0
c gate 431 44 132 0
44 -431 0
132 -431 0
-44 -132 431 0
c gate 432 -430 -431 0
-430 -432 0
-431 -432 0
430 431 432 0
c gate 433 -429 432 0
-429 -433 0
432 -433 0
429 -432 433 0
c gate 434 -428 433 0
-428 -434 0
433 -434 0
428 -433 434 0
c gate 435 -45 -133 0
-45 -435 0
-133 -435 0
45 133 435 0
c gate 436 -44 -132 0
-44 -436 0
-132 -436 0
44 132 436 0
c gate 437 -229 -436 0
-229 -437 0
-436 -437 0
229 436 437 0
c gate 438 -435 437 0
-435 -438 0
437 -438 0
435 -437 438 0
c gate 439 235 438 0
235 -439 0
438 -439 0
-235 -438 439 0
c gate 440 240 439 0
240 -440 0
439 -440 0
-240 -439 440 0
c gate 441 -434 440 0
-434 -441 0
440 -441 0
434 -440 441 0
c gate 442 -241 -441 0
-241 -442 0
-441 -442 0
241 441 442 0
c gate 443 -49 -137 0
-49 -443 0
-137 -443 0
49 137 443 0
c gate 444 -208 -443 0
-208 -444 0
-443 -444 0
208 443 444 0
c gate 445 211 444 0
211 -445 0
444 -445 0
-211 -444 445 0
c gate 446 217 226 0
217 -446 0
226 -446 0
-217 -226 446 0
c gate 447 445 446 0
445 -447 0
446 -447 0
-445 -446 447 0
c gate 448 222 447 0
222 -448 0
447 -448 0
-222 -447 448 0
c gate 449 -442 448 0
-442 -449 0
448 -449 0
442 -448 449 0
c gate 450 -228 -449 0
-228 -450 0
-449 -450 0
228 449 450 0
c gate 451 -56 -144 0
-56 -451 0
-144 -451 0
56 144 451 0
c gate 452 -55 -143 0
-55 -452 0
-143 -452 0
55 143 452 0
c gate 453 -451 -452 0
-451 -453 0
-452 -453 0
451 452 453 0
c gate 454 -450 453 0
-450 -454 0
453 -454 0
450 -453 454 0
c gate 455 207 -454 0
207 -455 0
-454 -455 0
-207 454 455 0
c gate 456 205 451 0
205 -456 0
451 -456 0
-205 -451 456 0
c gate 457 -57 -145 0
-57 -457 0
-145 -457 0
57 145 457 0
c gate 458 197 -457 0
197 -458 0
-457 -458 0
-197 457 458 0
c gate 459 -456 458 0
-456 -459 0
458 -459 0
456 -458 459 0
c gate 460 202 459 0
202 -460 0
459 -460 0
-202 -459 460 0
c gate 461 -455 460 0
-455 -461 0
460 -461 0
455 -460 461 0
c gate 462 204 -461 0
204 -462 0
-461 -462 0
-204 461 462 0
c gate 463 189 -462 0
189 -463 0
-462 -463 0
-189 462 463 0
c gate 464 61 149 0
61 -464 0
149 -464 0
-61 -149 464 0
c gate 465 62 150 0
62 -465 0
150 -465 0
-62 -150 465 0
c gate 466 -464 -465 0
-464 -466 0
-465 -466 0
464 465 466 0
c gate 467 188 -466 0
188 -467 0
-466 -467 0
-188 466 467 0
c gate 468 64 152 0
64 -468 0
152 -468 0
-64 -152 468 0
c gate 469 63 151 0
63 -469 0
151 -469 0
-63 -151 469 0
c gate 470 -186 469 0
-186 -470 0
469 -470 0
186 -469 470 0
c gate 471 -468 -470 0
-468 -471 0
-470 -471 0
468 470 471 0
c gate 472 -467 471 0
-467 -472 0
471 -472 0
467 -471 472 0
c gate 473 -463 472 0
-463 -473 0
472 -473 0
463 -472 473 0
c gate 474 -65 -153 0
-65 -474 0
-153 -474 0
65 153 474 0
c gate 475 -178 -474 0
-178 -475 0
-474 -475 0
178 474 475 0
c gate 476 181 475 0
181 -476 0
475 -476 0
-181 -475 476 0
c gate 477 -473 476 0
-473 -477 0
476 -477 0
473 -476 477 0
c gate 478 -182 -477 0
-182 -478 0
-477 -478 0
182 477 478 0
c gate 479 68 156 0
68 -479 0
156 -479 0
-68 -156 479 0
c gate 480 -67 -155 0
-67 -480 0
-155 -480 0
67 155 480 0
c gate 481 -479 -480 0
-479 -481 0
-480 -481 0
479 480 481 0
c gate 482 -478 481 0
-478 -482 0
481 -482 0
478 -481 482 0
c gate 483 -177 -482 0
-177 -483 0
-482 -483 0
177 482 483 0
c gate 484 -68 -156 0
-68 -484 0
-156 -484 0
68 156 484 0
c gate 485 189 -204 0
189 -485 0
-204 -485 0
-189 204 485 0
c gate 486 -180 472 0
-180 -486 0
472 -486 0
180 -472 486 0
c gate 487 -485 486 0
-485 -487 0
486 -487 0
485 -486 487 0
c gate 488 -179 475 0
-179 -488 0
475 -488 0
179 -475 488 0
c gate 489 -487 488 0
-487 -489 0
488 -489 0
487 -488 489 0
c gate 490 -177 -182 0
-177 -490 0
-182 -490 0
177 182 490 0
c gate 491 -489 490 0
-489 -491 0
490 -491 0
489 -490 491 0
c gate 492 -480 -484 0
-480 -492 0
-484 -492 0
480 484 492 0
c gate 493 -491 492 0
-491 -493 0
492 -493 0
491 -492 493 0
c gate 494 -484 -493 0
-484 -494 0
-493 -494 0
484 493 494 0
c gate 495 -483 -494 0
-483 -495 0
-494 -495 0
483 494 495 0
c gate 496 483 -493 0
483 -496 0
-493 -496 0
-483 493 496 0
c gate 497 -479 -496 0
-479 -497 0
-496 -497 0
479 496 497 0
c gate 498 -495 497 0
-495 -498 0
497 -498 0
495 -497 498 0
c gate 499 478 489 0
478 -499 0
489 -499 0
-478 -489 499 0
c gate 500 204 472 0
204 -500 0
472 -500 0
-204 -472 500 0
c gate 501 463 500 0
463 -501 0
500 -501 0
-463 -500 501 0
c gate 502 207 -228 0
207 -502 0
-228 -502 0
-207 228 502 0
c gate 503 454 502 0
454 -503 0
502 -503 0
-454 -502 503 0
c gate 504 246 268 0
246 -504 0
268 -504 0
-246 -268 504 0
c gate 505 -346 -504 0
-346 -505 0
-504 -505 0
346 504 505 0
c gate 506 311 -505 0
311 -506 0
-505 -506 0
-311 505 506 0
c gate 507 79 167 0
79 -507 0
167 -507 0
-79 -167 507 0
c gate 508 80 168 0
80 -508 0
168 -508 0
-80 -168 508 0
c gate 509 -507 -508 0
-507 -509 0
-508 -509 0
507 508 509 0
c gate 510 -79 -167 0
-79 -510 0
-167 -510 0
79 167 510 0
c gate 511 -78 -166 0
-78 -511 0
-166 -511 0
78 166 511 0
c gate 512 -510 -511 0
-510 -512 0
-511 -512 0
510 511 512 0
c gate 513 77 165 0
77 -513 0
165 -513 0
-77 -165 513 0
c gate 514 78 166 0
78 -514 0
166 -514 0
-78 -166 514 0
c gate 515 -513 -514 0
-513 -515 0
-514 -515 0
513 514 515 0
c gate 516 -77 -165 0
-77 -516 0
-165 -516 0
77 165 516 0
c gate 517 -76 -164 0
-76 -517 0
-164 -517 0
76 164 517 0
c gate 518 -516 -517 0
-516 -518 0
-517 -518 0
516 517 518 0
c gate 519 -75 -163 0
-75 -519 0
-163 -519 0
75 163 519 0
c gate 520 -74 -162 0
-74 -520 0
-162 -520 0
74 162 520 0
c gate 521 -519 -520 0
-519 -521 0
-520 -521 0
519 520 521 0
c gate 522 73 161 0
73 -522 0
161 -522 0
-73 -161 522 0
c gate 523 74 162 0
74 -523 0
162 -523 0
-74 -162 523 0
c gate 524 -522 -523 0
-522 -524 0
-523 -524 0
522 523 524 0
c gate 525 521 -524 0
521 -525 0
-524 -525 0
-521 524 525 0
c gate 526 75 163 0
75 -526 0
163 -526 0
-75 -163 526 0
c gate 527 76 164 0
76 -527 0
164 -527 0
-76 -164 527 0
c gate 528 -526 -527 0
-526 -528 0
-527 -528 0
526 527 528 0
c gate 529 -525 528 0
-525 -529 0
528 -529 0
525 -528 529 0
c gate 530 518 -529 0
518 -530 0
-529 -530 0
-518 529 530 0
c gate 531 515 -530 0
515 -531 0
-530 -531 0
-515 530 531 0
c gate 532 512 -531 0
512 -532 0
-531 -532 0
-512 531 532 0
c gate 533 509 -532 0
509 -533 0
-532 -533 0
-509 532 533 0
c gate 534 -80 -168 0
-80 -534 0
-168 -534 0
80 168 534 0
c gate 535 -81 -169 0
-81 -535 0
-169 -535 0
81 169 535 0
c gate 536 -534 -535 0
-534 -536 0
-535 -536 0
534 535 536 0
c gate 537 -533 536 0
-533 -537 0
536 -537 0
533 -536 537 0
c gate 538 81 169 0
81 -538 0
169 -538 0
-81 -169 538 0
c gate 539 82 170 0
82 -539 0
170 -539 0
-82 -170 539 0
c gate 540 -538 -539 0
-538 -540 0
-539 -540 0
538 539 540 0
c gate 541 -537 540 0
-537 -541 0
540 -541 0
537 -540 541 0
c gate 542 -83 -171 0
-83 -542 0
-171 -542 0
83 171 542 0
c gate 543 -82 -170 0
-82 -543 0
-170 -543 0
82 170 543 0
c gate 544 -542 -543 0
-542 -544 0
-543 -544 0
542 543 544 0
c gate 545 -541 544 0
-541 -545 0
544 -545 0
541 -544 545 0
c gate 546 83 171 0
83 -546 0
171 -546 0
-83 -171 546 0
c gate 547 84 172 0
84 -547 0
172 -547 0
-84 -172 547 0
c gate 548 -546 -547 0
-546 -548 0
-547 -548 0
546 547 548 0
c gate 549 -545 548 0
-545 -549 0
548 -549 0
545 -548 549 0
c gate 550 87 175 0
87 -550 0
175 -550 0
-87 -175 550 0
c gate 551 -84 -172 0
-84 -551 0
-172 -551 0
84 172 551 0
c gate 552 -87 -175 0
-87 -552 0
-175 -552 0
87 175 552 0
c gate 553 -551 -552 0
-551 -553 0
-552 -553 0
551 552 553 0
c gate 554 -550 553 0
-550 -554 0
553 -554 0
550 -553 554 0
c gate 555 88 176 0
88 -555 0
176 -555 0
-88 -176 555 0
c gate 556 85 173 0
85 -556 0
173 -556 0
-85 -173 556 0
c gate 557 -555 -556 0
-555 -557 0
-556 -557 0
555 556 557 0
c gate 558 -88 -176 0
-88 -558 0
-176 -558 0
88 176 558 0
c gate 559 -85 -173 0
-85 -559 0
-173 -559 0
85 173 559 0
c gate 560 -558 -559 0
-558 -560 0
-559 -560 0
558 559 560 0
c gate 561 -86 -174 0
-86 -561 0
-174 -561 0
86 174 561 0
c gate 562 86 174 0
86 -562 0
174 -562 0
-86 -174 562 0
c gate 563 -561 -562 0
-561 -563 0
-562 -563 0
561 562 563 0
c gate 564 560 563 0
560 -564 0
563 -564 0
-560 -563 564 0
c gate 565 557 564 0
557 -565 0
564 -565 0
-557 -564 565 0
c gate 566 554 565 0
554 -566 0
565 -566 0
-554 -565 566 0
c gate 567 -549 566 0
-549 -567 0
566 -567 0
549 -566 567 0
c gate 568 515 521 0
515 -568 0
521 -568 0
-515 -521 568 0
c gate 569 512 568 0
512 -569 0
568 -569 0
-512 -568 569 0
c gate 570 -72 -160 0
-72 -570 0
-160 -570 0
72 160 570 0
c gate 571 -73 -161 0
-73 -571 0
-161 -571 0
73 161 571 0
c gate 572 -570 -571 0
-570 -572 0
-571 -572 0
570 571 572 0
c gate 573 -534 572 0
-534 -573 0
572 -573 0
534 -572 573 0
c gate 574 509 518 0
509 -574 0
518 -574 0
-509 -518 574 0
c gate 575 573 574 0
573 -575 0
574 -575 0
-573 -574 575 0
c gate 576 569 575 0
569 -576 0
575 -576 0
-569 -575 576 0
c gate 577 69 157 0
69 -577 0
157 -577 0
-69 -157 577 0
c gate 578 70 158 0
70 -578 0
158 -578 0
-70 -158 578 0
c gate 579 -577 -578 0
-577 -579 0
-578 -579 0
577 578 579 0
c gate 580 -70 -158 0
-70 -580 0
-158 -580 0
70 158 580 0
c gate 581 -71 -159 0
-71 -581 0
-159 -581 0
71 159 581 0
c gate 582 -580 -581 0
-580 -582 0
-581 -582 0
580 581 582 0
c gate 583 -579 582 0
-579 -583 0
582 -583 0
579 -582 583 0
c gate 584 72 160 0
72 -584 0
160 -584 0
-72 -160 584 0
c gate 585 71 159 0
71 -585 0
159 -585 0
-71 -159 585 0
c gate 586 -584 -585 0
-584 -586 0
-585 -586 0
584 585 586 0
c gate 587 -583 586 0
-583 -587 0
586 -587 0
583 -586 587 0
c gate 588 529 -587 0
529 -588 0
-587 -588 0
-529 587 588 0
c gate 589 576 588 0
576 -589 0
588 -589 0
-576 -588 589 0
c gate 590 -479 -493 0
-479 -590 0
-493 -590 0
479 493 590 0
c gate 591 -69 -157 0
-69 -591 0
-157 -591 0
69 157 591 0
c gate 592 -570 -591 0
-570 -592 0
-591 -592 0
570 591 592 0
c gate 593 582 592 0
582 -593 0
592 -593 0
-582 -592 593 0
c gate 594 587 593 0
587 -594 0
593 -594 0
-587 -593 594 0
c gate 595 -590 594 0
-590 -595 0
594 -595 0
590 -594 595 0
c gate 596 -589 -595 0
-589 -596 0
-595 -596 0
589 595 596 0
c gate 597 -567 596 0
-567 -597 0
596 -597 0
567 -596 597 0
c gate 598 -506 597 0
-506 -598 0
597 -598 0
506 -597 598 0
c gate 599 -441 598 0
-441 -599 0
598 -599 0
441 -598 599 0
c gate 600 -503 599 0
-503 -600 0
599 -600 0
503 -599 600 0
c gate 601 -501 600 0
-501 -601 0
600 -601 0
501 -600 601 0
c gate 602 -499 601 0
-499 -602 0
601 -602 0
499 -601 602 0
c gate 603 -498 602 0
-498 -603 0
602 -603 0
498 -602 603 0
c PO
-603 0
